27	3

10	10	10	

0	0	0	0	3	2	3	4	
5	3	5	2	1	5	
1	5	4	3	1	6	
1	5	2	2	2	7	8	
3	4	1	4	2	9	12	
4	5	5	4	1	9	
1	3	5	2	1	10	
4	2	4	4	2	9	11	
2	3	2	2	2	13	16	
2	3	2	4	1	13	
7	3	3	2	3	13	14	15	
2	4	1	4	1	13	
4	1	4	4	1	17	
2	2	2	2	1	18	
8	5	5	4	1	18	
4	1	5	4	3	18	19	20	
4	4	5	4	3	21	23	24	
3	3	2	3	1	21	
3	5	3	3	1	22	
3	2	4	6	1	22	
3	1	6	2	1	25	
4	3	2	1	2	25	26	
4	1	0	4	1	25	
6	2	2	1	1	25	
5	0	1	3	1	27	
1	2	2	2	1	27	
0	0	0	0	0	
